50
99.0
0 49 5.39 0.1
1 48 5.31 0.09
2 47 5.45 0.09
3 46 5.13 0.09
4 45 4.98 0.09
5 44 5.07 0.09
6 43 5.21 0.09
7 42 4.67 0.09
8 41 4.98 0.09
9 40 4.78 0.09
10 39 4.69 0.09
11 38 5.29 0.1
12 37 4.27 0.09
13 36 5.61 0.09
14 35 4.97 0.1
15 34 4.88 0.09
16 33 4.97 0.09
17 32 5.34 0.09
18 31 4.87 0.09
19 30 4.7 0.09
20 29 4.97 0.09
21 28 4.57 0.09
22 27 6.22 0.1
23 26 5.5 0.09
24 25 5.28 0.09
25 24 5.21 0.09
26 23 5.96 0.1
27 22 6.05 0.09
28 21 5.48 0.09
29 20 5.65 0.09
30 19 5.53 0.09
31 18 5.61 0.09
32 17 5.35 0.09
33 16 5.31 0.09
34 15 4.27 0.09
35 14 4.79 0.09
36 13 6.0 0.09
37 12 5.67 0.09
38 11 5.82 0.09
39 10 6.5 0.08
40 9 5.89 0.09
41 8 6.12 0.09
42 7 5.86 0.09
43 6 5.0 0.09
44 5 5.0 0.09
45 4 4.25 0.09
46 3 7.33 0.08
47 2 7.5 0.08
48 1 7.0 0.08
